# 31761
param k := 6;
param n := 60;
param s := 1;
set E :=  (0,11) (0,21) (1,46) (2,19) (2,24) (3,5) (3,43) (4,8) (6,17) (6,55) (6,59) (7,11) (7,28) (7,35) (8,52) (9,35) (10,23) (11,15) (12,47) (13,31) (13,49) (13,56) (14,27) (14,40) (14,55) (14,56) (16,31) (16,36) (17,44) (18,59) (20,45) (21,33) (22,29) (22,30) (22,52) (23,24) (23,35) (23,51) (24,50) (25,44) (26,43) (30,50) (32,39) (32,46) (33,41) (34,35) (34,36) (34,58) (36,38) (36,51) (37,59) (38,47) (39,43) (42,54) (43,45) (45,47) (46,53) (46,57) (48,50) (54,55);